Route 1: 28 4 16 18 15 24 6 14 36 7 68 124 43 3 26 19 25 10 20 5 46 64 21 52 129 22 41 29 177 65 50 55 81 107 33 115 11 13 8 34 2 1 60 69 17 30 12 9 67

Route 2: 140 54 89 37 92 182 57 133 147 40 31 45 59 56 53 74 32 38 23 117 195 72 27 111 198 51 80 116 95 44 90 103 200 79 93 73 96 76 193 185 141 75 97 175 174

Route 3: 142 152 131 48 47 49 42 63 149 120 135 62 122 35 164 104 170 159 77 138 58 113 191 134 144 71 88 87 121 66 82 153 39 146 162 150

Route 4: 84 165 85 154 132 78 61 94 151 160 109 112 189 125 114 101 86 106 70 91 148 83 110 102

Route 5: 100 139 143 128 168 99 98 119 161 136 179 145 178 183 126 158

Route 6: 163 156 167 169 108 105 176 130 187 186 166

Route 7: 155 127 199 118 137 123 157 173

Route 8: 172 197 181 171 180 184 188 192 194

Route 9: 196 190

Number of vehicles used: 9
Total distance: 5101.99

